sat
((N 7)
 (0 0)
 (1 1)
 ((B 0 1 3) 1)
 ((B 0 1 2) 2)
 ((B 0 1 1) 3)
 (0 0)
 (2 2)
 ((B 0 2 3) 0)
 ((B 0 2 2) 0)
 ((B 0 2 1) 0)
 (0 0)
 (3 3)
 ((B 0 3 3) 0)
 ((B 0 3 2) 0)
 ((B 0 3 1) 0)
 (1 1)
 (1 1)
 ((B 1 1 3) 0)
 ((B 1 1 2) 2)
 ((B 1 1 1) 3)
 (1 1)
 (2 2)
 ((B 1 2 3) 0)
 ((B 1 2 2) 0)
 ((B 1 2 1) 0)
 (1 1)
 (3 3)
 ((B 1 3 3) 0)
 ((B 1 3 2) 0)
 ((B 1 3 1) 1)
 (2 2)
 (1 1)
 ((B 2 1 3) 0)
 ((B 2 1 2) 0)
 ((B 2 1 1) 3)
 (2 2)
 (2 2)
 ((B 2 2 3) 0)
 ((B 2 2 2) 0)
 ((B 2 2 1) 2)
 (2 2)
 (3 3)
 ((B 2 3 3) 0)
 ((B 2 3 2) 0)
 ((B 2 3 1) 1)
 (3 3)
 (1 1)
 ((B 3 1 3) 0)
 ((B 3 1 2) 0)
 ((B 3 1 1) 3)
 (3 3)
 (2 2)
 ((B 3 2 3) 0)
 ((B 3 2 2) 1)
 ((B 3 2 1) 2)
 (3 3)
 (3 3)
 ((B 3 3 3) 0)
 ((B 3 3 2) 0)
 ((B 3 3 1) 0)
 (4 4)
 (1 1)
 ((B 4 1 3) 0)
 ((B 4 1 2) 0)
 ((B 4 1 1) 0)
 (4 4)
 (2 2)
 ((B 4 2 3) 0)
 ((B 4 2 2) 1)
 ((B 4 2 1) 2)
 (4 4)
 (3 3)
 ((B 4 3 3) 0)
 ((B 4 3 2) 0)
 ((B 4 3 1) 3)
 (5 5)
 (1 1)
 ((B 5 1 3) 0)
 ((B 5 1 2) 0)
 ((B 5 1 1) 1)
 (5 5)
 (2 2)
 ((B 5 2 3) 0)
 ((B 5 2 2) 0)
 ((B 5 2 1) 2)
 (5 5)
 (3 3)
 ((B 5 3 3) 0)
 ((B 5 3 2) 0)
 ((B 5 3 1) 3)
 (6 6)
 (1 1)
 ((B 6 1 3) 0)
 ((B 6 1 2) 0)
 ((B 6 1 1) 1)
 (6 6)
 (2 2)
 ((B 6 2 3) 0)
 ((B 6 2 2) 0)
 ((B 6 2 1) 0)
 (6 6)
 (3 3)
 ((B 6 3 3) 0)
 ((B 6 3 2) 2)
 ((B 6 3 1) 3)
 (7 7)
 (1 1)
 ((B 7 1 3) 0)
 ((B 7 1 2) 0)
 ((B 7 1 1) 0)
 (7 7)
 (2 2)
 ((B 7 2 3) 0)
 ((B 7 2 2) 0)
 ((B 7 2 1) 0)
 (7 7)
 (3 3)
 ((B 7 3 3) 1)
 ((B 7 3 2) 2)
 ((B 7 3 1) 3))
